50
147 49 490 99 49 55 55 343 55 98 343 343 49 392 66 33 49 147 441 392 110 11 66 22 88 294 77 22 11 77 98 343 490 343 490 55 110 343 77 245 88 147 196 77 441 77 98 147 196 11 
447 149 1490 999 149 555 555 1043 555 298 1043 1043 149 1192 666 333 149 447 1341 1192 1110 111 666 222 888 894 777 222 111 777 298 1043 1490 1043 1490 555 1110 1043 777 745 888 447 596 777 1341 777 298 447 596 111 
4230
